<?xml version = "1.0" encoding="UTF-8" standalone="yes"?>
<CPLEXSolution version="1.2">
 <header
   problemName="/home/jiricermak/workspace/gtlibrary/SSEIter.lp"
   objectiveValue="0.433333333333333"
   solutionTypeValue="3"
   solutionTypeString="primal"
   solutionStatusValue="14"
   solutionStatusString="feasible relaxed sum of infeasibilities"
   solutionMethodString="unknown"
   primalFeasible="0"
   dualFeasible="0"
   writeLevel="1"/>
 <quality/>
 <linearConstraints>
  <constraint name="c1" index="0" slack="0"/>
  <constraint name="c1" index="1" slack="0"/>
  <constraint name="c3" index="2" slack="-5.55111512312578e-17"/>
  <constraint name="c5" index="3" slack="0"/>
  <constraint name="c7" index="4" slack="0"/>
  <constraint name="c9" index="5" slack="0"/>
  <constraint name="c11" index="6" slack="0"/>
  <constraint name="c13" index="7" slack="1.77635683940025e-15"/>
  <constraint name="c15" index="8" slack="-37.8333333333333"/>
  <constraint name="c17" index="9" slack="0"/>
  <constraint name="c19" index="10" slack="-37.8333333333333"/>
  <constraint name="c21" index="11" slack="0"/>
  <constraint name="c23" index="12" slack="0"/>
  <constraint name="c25" index="13" slack="0"/>
  <constraint name="c27" index="14" slack="0"/>
  <constraint name="c28" index="15" slack="0.433333333333333"/>
 </linearConstraints>
 <variables>
  <variable name="_lPl0._((Pl0,_1,_0)),Pl1._((Pl1,_3,_0))g#3" index="0" value="0.166666666666667"/>
  <variable name="_lPl0._((Pl0,_1,_0)),Pl1._((Pl1,_3,_1))g#4" index="1" value="0"/>
  <variable name="_lPl0._((Pl0,_1,_1)),Pl1._((Pl1,_3,_0))g#5" index="2" value="0.833333333333333"/>
  <variable name="_lPl0._((Pl0,_1,_1)),Pl1._((Pl1,_3,_1))g#6" index="3" value="0"/>
  <variable name="_lPl0._(),Pl1._()g#0" index="4" value="1"/>
  <variable name="_lPl0._((Pl0,_1,_0)),Pl1._()g#1" index="5" value="0.166666666666667"/>
  <variable name="_lPl0._((Pl0,_1,_1)),Pl1._()g#2" index="6" value="0.833333333333333"/>
  <variable name="_lv,Pl1._()g#7" index="7" value="0"/>
  <variable name="_lv,Pl1._((Pl1,_3,_0))g#8" index="8" value="0"/>
  <variable name="_lv,Pl1._((Pl1,_3,_1))g#9" index="9" value="0"/>
  <variable name="_lIS.(Pl1).Pl1._(),Pl1._()g#10" index="10" value="0"/>
  <variable name="_lIS.(Pl1).Pl1._(),Pl1._((Pl1,_3,_0))g#11" index="11" value="0"/>
  <variable name="_lIS.(Pl1).Pl1._(),Pl1._((Pl1,_3,_1))g#12" index="12" value="0"/>
 </variables>
</CPLEXSolution>
